10 - 50 - 72.05
10 - 500 - 86.12
10 - 5000 - 86.08
15 - 50 - 56.54
15 - 500 - 80.21
15 - 5000 - 85.56
20 - 50 - 76.05
20 - 500 - 106.01
20 - 5000 - 111.79
25 - 50 - 89.37
25 - 500 - 132.44
25 - 5000 - 145.59
30 - 50 - 109.49
30 - 500 - 150.37
30 - 5000 - 181.59
